0 41 46 18 10 30 6 15 35 46
41 0 10 29 43 27 24 7 48 31
46 10 0 29 20 5 14 32 45 24
18 29 29 0 41 2 10 18 33 46
10 43 20 41 0 41 7 12 46 43
30 27 5 2 41 0 35 50 42 10
6 24 14 10 7 35 0 29 49 15
15 7 32 18 12 50 29 0 50 44
35 48 45 33 46 42 49 50 0 50
46 31 24 46 43 10 15 44 50 0
